Normalized Data/p10_3_normalized_splitx10_0.vrp
NAME:p10_3_NORMALIZED_splitx10_
BEST_KNOWN: 0
COMMENT: 0
DIMENSION: 814
CAPACITY: 1000
EDGE_WEIGHT_FORMAT: FUNCTION
EDGE_WEIGHT_TYPE: EXACT_2D
NODE_COORD_SECTION
1 0.00000 0.00000
2 38 45
3 38 45
4 38 45
5 38 45
6 -2 5
7 -2 5
8 -2 5
9 -2 5
10 -41 -16
11 -41 -16
12 -41 -16
13 11 -9
14 11 -9
15 11 -9
16 16 -36
17 16 -36
18 16 -36
19 -21 -36
20 -21 -36
21 -21 -36
22 -21 -36
23 -21 -36
24 3 -14
25 3 -14
26 3 -14
27 3 -14
28 3 -14
29 3 -14
30 -15 18
31 -15 18
32 -15 18
33 -15 18
34 -15 18
35 -15 18
36 6 1
37 6 1
38 6 1
39 45 4
40 45 4
41 45 4
42 -3 -10
43 -3 -10
44 -3 -10
45 -3 -10
46 25 28
47 25 28
48 25 28
49 21 -10
50 21 -10
51 21 -10
52 21 -10
53 21 -10
54 29 4
55 29 4
56 29 4
57 29 4
58 29 4
59 -24 1
60 -24 1
61 -24 1
62 -24 1
63 -24 1
64 10 25
65 10 25
66 10 25
67 10 25
68 10 25
69 10 25
70 10 -8
71 10 -8
72 10 -8
73 10 -8
74 36 45
75 36 45
76 38 -47
77 38 -47
78 38 -47
79 38 -47
80 38 -47
81 -36 -24
82 -36 -24
83 -36 -24
84 -36 -24
85 -36 -24
86 -49 -14
87 -49 -14
88 -49 -14
89 -49 -14
90 -49 -14
91 -49 -14
92 -46 29
93 -46 29
94 -46 29
95 -46 29
96 -46 29
97 23 -16
98 23 -16
99 -6 47
100 -6 47
101 -6 47
102 -6 47
103 -29 8
104 -29 8
105 -19 -24
106 -19 -24
107 10 32
108 10 32
109 10 32
110 10 32
111 -9 -11
112 -9 -11
113 -9 -11
114 38 42
115 38 42
116 10 -32
117 10 -32
118 10 -32
119 10 -32
120 10 -32
121 -45 -27
122 -30 24
123 -30 24
124 -30 24
125 9 26
126 9 26
127 9 26
128 -38 25
129 -38 25
130 -38 25
131 -38 25
132 -9 -3
133 -9 -3
134 -9 -3
135 -9 -3
136 -42 10
137 -42 10
138 -42 10
139 -42 10
140 41 10
141 41 10
142 26 -40
143 26 -40
144 26 -40
145 26 -40
146 3 12
147 3 12
148 3 12
149 3 12
150 3 12
151 3 12
152 -37 -15
153 -37 -15
154 -37 -15
155 -37 -15
156 14 -20
157 14 -20
158 16 -47
159 16 -47
160 16 -47
161 16 -47
162 16 -47
163 16 -47
164 8 25
165 8 25
166 8 25
167 8 25
168 8 25
169 8 25
170 27 22
171 27 22
172 27 22
173 -25 -11
174 -25 -11
175 -25 -11
176 -25 -11
177 -25 -11
178 -25 -11
179 14 -24
180 14 -24
181 14 -24
182 14 -24
183 14 -24
184 -4 -10
185 -4 -10
186 -4 -10
187 48 -31
188 48 -31
189 48 -31
190 48 -31
191 48 -31
192 -31 -6
193 -31 -6
194 -31 -6
195 -31 -6
196 -31 -6
197 -31 -6
198 -14 7
199 -14 7
200 -14 7
201 -14 7
202 -14 7
203 37 2
204 37 2
205 37 2
206 37 2
207 37 2
208 -24 19
209 -24 19
210 -24 19
211 -24 19
212 -25 43
213 -25 43
214 -25 43
215 -25 43
216 24 11
217 24 11
218 24 11
219 24 11
220 24 11
221 24 11
222 -17 -13
223 -17 -13
224 -17 -13
225 -17 -13
226 -17 -13
227 -17 -13
228 12 37
229 12 37
230 12 37
231 12 37
232 12 37
233 12 37
234 12 -37
235 12 -37
236 12 -37
237 12 -37
238 12 -37
239 47 -5
240 47 -5
241 47 -5
242 47 49
243 47 49
244 47 49
245 -15 -18
246 -47 45
247 -47 45
248 -47 45
249 -47 45
250 -47 45
251 3 15
252 3 15
253 3 15
254 -17 40
255 -17 40
256 48 -36
257 48 -36
258 48 -36
259 -19 -20
260 -33 -12
261 -33 -12
262 -33 -12
263 -33 -12
264 -33 -12
265 -33 -12
266 -48 49
267 -48 49
268 23 -27
269 23 -27
270 23 -27
271 23 -27
272 -27 0
273 -27 0
274 -27 0
275 -27 0
276 -27 0
277 4 17
278 4 17
279 4 17
280 4 17
281 -40 -31
282 -40 -31
283 -40 -31
284 -40 -31
285 -40 -31
286 -40 -31
287 -24 -36
288 -24 -36
289 -24 -36
290 -24 -36
291 -24 -36
292 -32 -15
293 -32 -15
294 -32 -15
295 -32 -15
296 -32 -15
297 -32 -15
298 -18 -34
299 -18 -34
300 -18 -34
301 -18 -34
302 -28 39
303 -28 39
304 -28 39
305 -28 39
306 -28 39
307 -28 39
308 33 -8
309 33 -8
310 33 -8
311 -18 -37
312 2 -24
313 2 -24
314 2 -24
315 11 -12
316 11 -12
317 11 -12
318 47 19
319 47 19
320 47 19
321 47 19
322 47 19
323 -20 44
324 -20 44
325 -20 44
326 -20 44
327 -20 44
328 1 -9
329 1 -9
330 1 -9
331 1 -9
332 14 35
333 14 35
334 14 35
335 14 35
336 14 35
337 -11 -4
338 -11 -4
339 -11 -4
340 43 1
341 43 1
342 43 1
343 31 -39
344 31 -39
345 31 -39
346 31 -39
347 37 44
348 37 44
349 -3 -28
350 -3 -28
351 -3 -28
352 -3 -28
353 -49 -10
354 -49 -10
355 31 -7
356 31 -7
357 31 -7
358 31 -7
359 31 -7
360 31 -7
361 45 33
362 45 33
363 45 33
364 45 33
365 45 33
366 -26 20
367 -26 20
368 -26 20
369 -46 0
370 -46 0
371 -46 0
372 -46 0
373 -46 0
374 -46 0
375 -46 0
376 -12 25
377 -12 25
378 -12 25
379 -12 25
380 -12 25
381 -16 33
382 -16 33
383 -16 33
384 28 -17
385 -22 -17
386 -22 -17
387 -22 -17
388 -22 -17
389 -2 -38
390 -29 36
391 -29 36
392 -29 36
393 -29 36
394 -29 36
395 40 -13
396 40 -13
397 40 -13
398 40 -13
399 40 -13
400 -39 -24
401 -39 -24
402 -39 -24
403 -39 -24
404 -39 -24
405 -39 -24
406 -36 43
407 -36 43
408 -28 13
409 -28 13
410 -28 13
411 -28 13
412 -28 13
413 -28 13
414 23 -16
415 23 -16
416 23 -16
417 23 -16
418 21 -27
419 21 -27
420 21 -27
421 21 -27
422 21 -27
423 21 -27
424 18 18
425 18 18
426 18 18
427 18 18
428 18 18
429 18 18
430 -13 26
431 -13 26
432 -13 26
433 44 8
434 44 8
435 44 8
436 44 8
437 44 8
438 44 8
439 -1 30
440 -1 30
441 -1 30
442 -1 30
443 39 28
444 5 7
445 5 7
446 5 7
447 5 7
448 5 7
449 5 7
450 32 40
451 32 40
452 32 40
453 32 40
454 -45 36
455 -45 36
456 0 -47
457 0 -47
458 0 -47
459 33 4
460 33 4
461 33 4
462 33 4
463 34 23
464 34 23
465 34 23
466 34 23
467 34 23
468 3 -41
469 3 -41
470 3 -41
471 3 -41
472 3 -41
473 3 -41
474 3 -41
475 -47 -25
476 -47 -25
477 -47 -25
478 -4 34
479 -4 34
480 -4 34
481 -4 34
482 -4 34
483 40 24
484 40 24
485 40 24
486 40 24
487 40 24
488 40 24
489 15 -10
490 15 -10
491 15 -10
492 15 -10
493 -35 -29
494 -35 -29
495 -35 -29
496 -35 -29
497 -35 -29
498 38 7
499 38 7
500 5 49
501 5 49
502 5 49
503 5 49
504 5 49
505 5 49
506 -15 -12
507 -15 -12
508 -15 -12
509 -24 0
510 -24 0
511 -24 0
512 -45 42
513 -45 42
514 -45 42
515 -45 42
516 -45 42
517 -45 42
518 -26 -38
519 -26 -38
520 -26 -38
521 -26 -38
522 -26 -38
523 -19 18
524 -19 18
525 -19 18
526 50 18
527 50 18
528 50 18
529 50 18
530 50 18
531 50 18
532 50 18
533 19 46
534 19 46
535 19 46
536 19 46
537 19 46
538 19 46
539 -1 23
540 -1 23
541 -1 23
542 17 46
543 17 46
544 -42 8
545 -42 8
546 -42 8
547 -42 8
548 -42 8
549 -42 8
550 42 11
551 42 11
552 42 11
553 42 11
554 6 15
555 6 15
556 6 15
557 6 15
558 6 15
559 42 25
560 42 25
561 42 25
562 42 25
563 -37 -13
564 -37 -13
565 -37 -13
566 -13 -36
567 -13 -36
568 -13 -36
569 -13 -36
570 -13 -36
571 -21 -43
572 -21 -43
573 -21 -43
574 -47 22
575 -47 22
576 -47 22
577 -39 -37
578 -39 -37
579 -39 -37
580 -39 -37
581 -39 -37
582 -16 -9
583 -16 -9
584 -16 -9
585 -16 -9
586 -16 -9
587 -16 -9
588 28 -1
589 28 -1
590 28 -1
591 14 -9
592 14 -9
593 14 -9
594 14 -9
595 14 -9
596 14 -9
597 -35 23
598 -35 23
599 -35 23
600 -35 23
601 -13 -45
602 -13 -45
603 -13 -45
604 -1 12
605 -1 12
606 -1 12
607 41 45
608 41 45
609 41 45
610 41 45
611 21 4
612 21 4
613 -27 40
614 -7 -15
615 -7 -15
616 -7 -15
617 -7 -15
618 -22 32
619 -22 32
620 -22 32
621 -22 32
622 -41 -13
623 -18 13
624 -18 13
625 -47 -7
626 -47 -7
627 -47 -7
628 -14 -41
629 -14 -41
630 44 24
631 44 24
632 44 24
633 44 24
634 44 24
635 5 -43
636 5 -43
637 5 -43
638 -37 -34
639 -37 -34
640 -37 -34
641 -37 -34
642 -37 -34
643 31 -34
644 31 -34
645 31 -34
646 31 -34
647 31 -34
648 31 -34
649 -44 0
650 -44 0
651 -44 0
652 -44 0
653 -44 0
654 -44 0
655 -35 17
656 -35 17
657 -35 17
658 -20 23
659 -20 23
660 -20 23
661 23 14
662 23 14
663 23 14
664 23 14
665 23 14
666 23 14
667 12 41
668 12 41
669 12 41
670 12 41
671 12 41
672 12 41
673 12 41
674 21 -45
675 21 -45
676 21 -45
677 21 -45
678 21 -45
679 21 -45
680 -27 -5
681 -27 -5
682 -27 -5
683 -27 -5
684 -27 -5
685 -27 -5
686 48 11
687 48 -38
688 48 -38
689 -47 12
690 -47 12
691 -47 12
692 -47 12
693 -6 -46
694 -6 -46
695 -6 -46
696 -6 -46
697 -6 -46
698 15 6
699 15 6
700 15 6
701 15 6
702 13 -49
703 13 -49
704 13 -49
705 13 -49
706 13 -49
707 13 -49
708 -32 12
709 -32 12
710 -32 12
711 -32 12
712 -32 12
713 48 -21
714 48 -21
715 48 -21
716 48 -21
717 48 -21
718 -14 -46
719 -14 -46
720 -3 39
721 -3 39
722 -3 39
723 17 0
724 17 0
725 17 0
726 17 0
727 -34 29
728 -34 29
729 -34 29
730 -34 29
731 -34 29
732 -34 29
733 -34 29
734 -42 16
735 -42 16
736 -42 16
737 -20 -4
738 -20 -4
739 -20 -4
740 -20 -4
741 -20 -4
742 -20 -4
743 -20 -4
744 -27 -40
745 -27 -40
746 -27 -40
747 -27 -40
748 -27 -40
749 -27 -40
750 37 44
751 37 44
752 7 35
753 7 35
754 43 -25
755 43 -25
756 43 -25
757 43 -25
758 43 -25
759 43 -25
760 43 -25
761 -22 13
762 -22 13
763 -22 13
764 -22 13
765 -22 13
766 -22 13
767 -8 -50
768 -8 -50
769 -8 -50
770 -8 -50
771 -8 -50
772 35 18
773 35 18
774 35 18
775 35 18
776 35 18
777 -46 31
778 -46 31
779 -46 31
780 -11 19
781 -11 19
782 -11 19
783 -11 19
784 -11 19
785 -11 19
786 20 17
787 20 17
788 20 17
789 20 17
790 -15 24
791 -15 24
792 -15 24
793 -15 24
794 -15 24
795 23 -35
796 23 -35
797 23 -35
798 44 22
799 44 22
800 44 22
801 -23 45
802 -23 45
803 -23 45
804 -23 45
805 4 -41
806 4 -41
807 4 -41
808 4 -41
809 31 28
810 31 28
811 20 3
812 20 3
813 20 3
814 20 3
DEMAND_SECTION
1 0
2 200
3 10
4 10
5 10
6 100
7 10
8 10
9 10
10 200
11 200
12 100
13 200
14 50
15 10
16 200
17 50
18 10
19 200
20 200
21 10
22 10
23 10
24 200
25 100
26 10
27 10
28 10
29 10
30 100
31 50
32 10
33 10
34 10
35 10
36 200
37 100
38 50
39 100
40 50
41 10
42 200
43 200
44 10
45 10
46 200
47 200
48 100
49 100
50 10
51 10
52 10
53 10
54 200
55 200
56 50
57 10
58 10
59 200
60 200
61 50
62 10
63 10
64 200
65 100
66 10
67 10
68 10
69 10
70 200
71 50
72 10
73 10
74 200
75 200
76 200
77 200
78 10
79 10
80 10
81 200
82 100
83 10
84 10
85 10
86 200
87 200
88 10
89 10
90 10
91 10
92 200
93 10
94 10
95 10
96 10
97 200
98 50
99 100
100 10
101 10
102 10
103 200
104 10
105 200
106 10
107 200
108 100
109 50
110 10
111 200
112 200
113 10
114 200
115 50
116 200
117 200
118 50
119 10
120 10
121 200
122 100
123 50
124 10
125 200
126 200
127 10
128 100
129 10
130 10
131 10
132 100
133 10
134 10
135 10
136 200
137 100
138 50
139 10
140 200
141 200
142 200
143 100
144 10
145 10
146 200
147 200
148 10
149 10
150 10
151 10
152 200
153 50
154 10
155 10
156 200
157 10
158 200
159 50
160 10
161 10
162 10
163 10
164 200
165 100
166 50
167 10
168 10
169 10
170 200
171 200
172 50
173 200
174 200
175 50
176 10
177 10
178 10
179 200
180 100
181 10
182 10
183 10
184 200
185 50
186 10
187 100
188 10
189 10
190 10
191 10
192 200
193 50
194 10
195 10
196 10
197 10
198 200
199 10
200 10
201 10
202 10
203 200
204 50
205 10
206 10
207 10
208 200
209 100
210 10
211 10
212 200
213 200
214 10
215 10
216 200
217 100
218 10
219 10
220 10
221 10
222 100
223 50
224 10
225 10
226 10
227 10
228 200
229 100
230 50
231 10
232 10
233 10
234 200
235 10
236 10
237 10
238 10
239 200
240 100
241 50
242 200
243 200
244 50
245 200
246 200
247 100
248 10
249 10
250 10
251 200
252 200
253 50
254 100
255 50
256 200
257 100
258 50
259 200
260 200
261 200
262 10
263 10
264 10
265 10
266 100
267 50
268 200
269 100
270 10
271 10
272 100
273 50
274 10
275 10
276 10
277 200
278 100
279 10
280 10
281 100
282 50
283 10
284 10
285 10
286 10
287 200
288 200
289 10
290 10
291 10
292 200
293 100
294 10
295 10
296 10
297 10
298 200
299 200
300 10
301 10
302 200
303 50
304 10
305 10
306 10
307 10
308 100
309 50
310 10
311 200
312 200
313 10
314 10
315 200
316 10
317 10
318 100
319 50
320 10
321 10
322 10
323 100
324 10
325 10
326 10
327 10
328 200
329 200
330 10
331 10
332 200
333 10
334 10
335 10
336 10
337 200
338 50
339 10
340 200
341 50
342 10
343 200
344 100
345 50
346 10
347 100
348 50
349 100
350 10
351 10
352 10
353 200
354 200
355 200
356 100
357 10
358 10
359 10
360 10
361 100
362 50
363 10
364 10
365 10
366 200
367 50
368 10
369 200
370 100
371 50
372 10
373 10
374 10
375 10
376 100
377 10
378 10
379 10
380 10
381 200
382 50
383 10
384 200
385 200
386 50
387 10
388 10
389 200
390 200
391 200
392 50
393 10
394 10
395 200
396 200
397 10
398 10
399 10
400 200
401 50
402 10
403 10
404 10
405 10
406 100
407 50
408 200
409 200
410 50
411 10
412 10
413 10
414 200
415 200
416 50
417 10
418 200
419 50
420 10
421 10
422 10
423 10
424 200
425 100
426 50
427 10
428 10
429 10
430 200
431 200
432 50
433 200
434 50
435 10
436 10
437 10
438 10
439 100
440 10
441 10
442 10
443 200
444 100
445 50
446 10
447 10
448 10
449 10
450 100
451 10
452 10
453 10
454 200
455 200
456 200
457 100
458 10
459 200
460 10
461 10
462 10
463 200
464 200
465 10
466 10
467 10
468 200
469 200
470 50
471 10
472 10
473 10
474 10
475 200
476 50
477 10
478 200
479 100
480 50
481 10
482 10
483 200
484 100
485 10
486 10
487 10
488 10
489 200
490 50
491 10
492 10
493 200
494 200
495 10
496 10
497 10
498 100
499 50
500 200
501 100
502 10
503 10
504 10
505 10
506 100
507 10
508 10
509 200
510 200
511 50
512 100
513 50
514 10
515 10
516 10
517 10
518 200
519 100
520 10
521 10
522 10
523 200
524 200
525 100
526 200
527 100
528 50
529 10
530 10
531 10
532 10
533 200
534 100
535 10
536 10
537 10
538 10
539 200
540 50
541 10
542 200
543 100
544 200
545 100
546 50
547 10
548 10
549 10
550 200
551 200
552 50
553 10
554 200
555 10
556 10
557 10
558 10
559 200
560 50
561 10
562 10
563 200
564 200
565 100
566 200
567 50
568 10
569 10
570 10
571 200
572 10
573 10
574 100
575 50
576 10
577 200
578 10
579 10
580 10
581 10
582 200
583 200
584 50
585 10
586 10
587 10
588 200
589 200
590 10
591 200
592 200
593 10
594 10
595 10
596 10
597 200
598 200
599 10
600 10
601 200
602 200
603 50
604 100
605 10
606 10
607 200
608 100
609 50
610 10
611 200
612 10
613 200
614 200
615 200
616 10
617 10
618 200
619 10
620 10
621 10
622 200
623 100
624 50
625 200
626 100
627 10
628 200
629 100
630 200
631 200
632 10
633 10
634 10
635 100
636 10
637 10
638 200
639 50
640 10
641 10
642 10
643 200
644 100
645 50
646 10
647 10
648 10
649 200
650 100
651 50
652 10
653 10
654 10
655 200
656 100
657 10
658 200
659 200
660 50
661 200
662 200
663 50
664 10
665 10
666 10
667 200
668 100
669 50
670 10
671 10
672 10
673 10
674 200
675 50
676 10
677 10
678 10
679 10
680 200
681 100
682 50
683 10
684 10
685 10
686 200
687 100
688 50
689 100
690 50
691 10
692 10
693 200
694 10
695 10
696 10
697 10
698 200
699 200
700 10
701 10
702 200
703 200
704 50
705 10
706 10
707 10
708 200
709 200
710 50
711 10
712 10
713 200
714 100
715 50
716 10
717 10
718 200
719 10
720 100
721 10
722 10
723 200
724 100
725 50
726 10
727 200
728 200
729 50
730 10
731 10
732 10
733 10
734 200
735 10
736 10
737 200
738 100
739 50
740 10
741 10
742 10
743 10
744 200
745 100
746 50
747 10
748 10
749 10
750 100
751 50
752 200
753 200
754 200
755 100
756 50
757 10
758 10
759 10
760 10
761 200
762 200
763 50
764 10
765 10
766 10
767 100
768 10
769 10
770 10
771 10
772 200
773 100
774 50
775 10
776 10
777 100
778 50
779 10
780 200
781 100
782 10
783 10
784 10
785 10
786 200
787 200
788 10
789 10
790 200
791 50
792 10
793 10
794 10
795 100
796 50
797 10
798 200
799 200
800 10
801 200
802 100
803 50
804 10
805 200
806 10
807 10
808 10
809 200
810 100
811 200
812 50
813 10
814 10
DEPOT_SECTION
1
-1
EOF