Normalized Data/p10_3_normalized_splitx10_0.sol
813 -5 6 7 605 603 145 149 147 146 37 35 36 -8 378 379 375 430 429 431 793 790 781 779 782 780 783 784 -13 14 12 315 314 155 178 182 181 179 180 -17 16 15 234 235 237 233 236 119 118 115 116 117 -33 30 34 32 31 29 522 524 523 622 197 -41 183 614 613 111 -44 43 42 23 24 25 26 27 28 327 330 328 329 -45 47 46 333 335 106 108 109 107 65 64 556 -48 51 49 50 52 415 416 414 97 413 96 -58 271 103 102 710 708 709 707 711 -62 61 59 60 274 273 272 275 508 509 510 736 -63 124 126 125 167 164 168 166 163 165 -66 68 67 230 231 228 232 227 229 670 669 671 668 672 666 667 752 -71 70 72 69 490 491 488 489 590 591 594 595 593 592 -74 73 1 346 750 114 113 -84 80 83 81 82 281 285 283 282 280 284 120 475 474 476 586 584 -105 104 298 300 299 297 310 567 569 348 349 350 351 -112 110 582 581 583 585 336 338 131 134 -122 121 123 130 129 127 726 732 729 727 728 730 731 617 619 620 618 -128 778 777 776 516 514 512 515 513 511 245 249 246 247 248 266 265 406 405 -132 133 337 291 296 292 295 264 259 196 192 195 194 191 193 741 738 739 -150 148 751 477 479 478 441 438 440 439 538 540 539 -152 154 153 151 562 564 563 260 263 262 261 -156 794 795 796 75 77 76 79 78 344 345 343 342 419 421 316 -159 161 158 160 157 162 701 704 706 703 702 705 311 312 313 -169 170 465 463 773 771 774 772 775 -171 808 809 442 361 362 360 364 363 559 558 561 560 -174 173 172 176 177 175 679 681 680 682 737 742 740 -184 185 18 22 21 20 19 288 286 287 289 290 -200 198 201 199 734 735 733 136 137 138 135 548 547 546 544 543 545 -203 206 205 202 204 38 40 39 685 433 435 436 434 437 432 498 -207 210 209 208 657 659 658 789 791 792 -212 213 211 214 802 803 801 800 324 322 325 323 326 382 381 376 377 -244 258 385 386 387 384 223 225 221 226 224 222 507 505 506 -251 252 250 277 279 276 278 553 557 555 554 -293 294 90 88 85 87 89 86 352 353 626 625 -307 309 308 240 238 239 340 341 339 458 -332 334 331 541 542 536 533 537 535 532 534 449 451 452 450 -347 749 2 4 3 243 242 241 609 607 608 606 -356 357 358 355 398 397 395 394 396 713 712 715 714 716 755 758 759 -359 354 383 270 269 267 268 418 420 417 422 -367 365 366 598 599 596 597 656 655 654 412 -380 253 254 98 99 101 100 504 503 499 502 500 501 720 719 721 480 481 604 -388 468 467 472 470 473 471 636 635 634 804 807 805 806 -392 389 390 391 393 305 303 302 304 301 306 612 -401 400 404 402 403 399 10 9 11 621 -411 407 410 408 409 763 764 760 765 761 762 623 -445 446 443 444 447 448 423 425 426 424 427 428 787 785 788 786 -454 453 91 92 93 95 94 575 573 574 688 691 690 689 -460 459 461 497 139 140 551 552 549 550 -462 464 466 483 484 486 482 487 485 632 633 630 629 631 -469 456 455 457 767 769 770 768 766 694 695 692 693 696 565 568 566 -496 494 495 492 493 638 637 641 639 640 576 577 579 578 580 -520 518 517 521 519 746 747 748 743 744 745 572 571 570 615 616 -525 529 528 530 526 527 531 320 319 321 318 317 799 798 797 663 664 -588 589 587 53 57 56 55 54 811 813 -600 602 601 717 718 628 627 -644 647 645 646 643 642 142 144 143 141 674 677 676 673 675 678 -653 652 648 650 651 649 369 371 374 373 368 370 372 624 684 683 -660 661 665 662 216 218 220 219 215 217 698 -686 687 257 256 255 187 188 189 190 186 753 754 757 756 -699 697 700 611 610 810 812 725 724 722 723 0 





OBJ=
5333.832
BEST_KNOWN=
0.000